P = array1d(2..4, [1, 2, 3]);
P2 = array1d(1..3, [0, 1, 2]);
T = 12;
cp = 1;
g = array3d(1..3, 2..4, 1..T, [
   1, 1, 0, 0, 0, 0, 0, 0, 0, 0, 0, 0,     0, 0, 0, 0, 0, 0, 0, 0, 0, 0, 0, 0,    0, 0, 0, 0, 0, 0, 0, 0, 0, 0, 0, 0,
   0, 0, 0, 0, 0, 0, 0, 0, 0, 0, 0, 0,     2, 0, 0, 0, 0, 0, 0, 0, 0, 0, 0, 0,    0, 0, 0, 0, 0, 0, 0, 0, 0, 0, 0, 0,
   0, 0, 0, 0, 0, 0, 0, 0, 0, 0, 0, 0,     0, 0, 0, 0, 0, 0, 0, 0, 0, 0, 0, 0,    2, 0, 0, 0, 0, 0, 0, 0, 0, 0, 0, 0
]);
m = 2;
n = 4;
p = [1, 1, 1];


% P = array1d(2..4, [1, 2, 3]);
% P2 = array1d(1..3, [0, 1, 2]);
% T = 12;
% cp = 1;
% g = array3d(1..3, 2..4, 1..T, [
%    2, 0, 0, 0, 0, 0, 0, 0, 0, 0, 0, 0,     0, 0, 0, 0, 0, 0, 0, 0, 0, 0, 0, 0,    2, 0, 0, 0, 0, 0, 0, 0, 0, 0, 0, 0,
%    0, 0, 0, 0, 0, 0, 0, 0, 0, 0, 0, 0,     2, 0, 0, 0, 0, 0, 0, 0, 0, 0, 0, 0,    0, 0, 0, 0, 0, 0, 0, 0, 0, 0, 0, 0,
%    0, 0, 0, 0, 0, 0, 0, 0, 0, 0, 0, 0,     0, 0, 0, 0, 0, 0, 0, 0, 0, 0, 0, 0,    2, 0, 0, 0, 0, 0, 0, 0, 0, 0, 0, 0
% ]);
% m = 2;
% n = 4;
% p = [1, 1, 1];


% P = array1d(2..4, [1, 2, 3]);
% P2 = array1d(1..3, [0, 1, 2]);
% T = 12;
% cp = 10;
% g = array3d(1..3, 2..4, 1..T, [
%    40, 0, 0, 0, 0, 0, 0, 0, 0, 0, 0, 0,     0, 0, 0, 0, 0, 0, 0, 0, 0, 0, 0, 0,    0, 0, 0, 0, 0, 0, 0, 0, 0, 0, 0, 0,
%    0, 0, 0, 0, 0, 0, 0, 0, 0, 0, 0, 0,     0, 0, 0, 0, 0, 0, 0, 0, 0, 0, 0, 0,    0, 0, 0, 0, 0, 0, 0, 0, 0, 0, 0, 0,
%    0, 0, 0, 0, 0, 0, 0, 0, 0, 0, 0, 0,     0, 0, 0, 0, 0, 0, 0, 0, 0, 0, 0, 0,    0, 0, 0, 0, 0, 0, 0, 0, 0, 0, 0, 0
% ]);
% m = 1;
% n = 4;
% p = [1, 1, 1];



% P = array1d(2..4, [1, 2, 3]);
% P2 = array1d(1..3, [0, 1, 2]);
% T = 12;
% cp = 10;
% g = array3d(1..3, 2..4, 1..T, [
%    30, 0, 0, 0, 0, 0, 0, 0, 0, 0, 0, 0,     0, 0, 0, 0, 0, 0, 0, 0, 0, 0, 0, 0,    0, 0, 0, 0, 0, 0, 0, 0, 0, 0, 0, 0,
%    0, 0, 0, 0, 0, 0, 0, 0, 0, 0, 0, 0,     0, 0, 0, 0, 0, 0, 0, 0, 0, 0, 0, 0,    0, 0, 0, 0, 0, 0, 0, 0, 0, 0, 0, 0,
%    0, 0, 0, 0, 0, 0, 0, 0, 0, 0, 0, 0,     0, 0, 0, 0, 0, 0, 0, 0, 0, 0, 0, 0,    0, 0, 0, 0, 0, 0, 0, 0, 0, 0, 0, 0
% ]);
% m = 1;
% n = 4;
% p = [1, 1, 1];


% P = array1d(2..4, [1, 2, 3]);
% P2 = array1d(1..3, [0, 1, 2]);
% T = 11;
% cp = 10;
% g = array3d(1..3, 2..4, 1..11, [
%    0, 0, 0, 0, 0, 10, 0, 0, 0, 0, 0,     0, 0, 0, 0, 0, 0, 0, 0, 0, 0, 0,    0, 0, 0, 0, 0, 0, 0, 0, 0, 0, 0,
%    0, 0, 0, 0, 0, 0, 0, 0, 0, 0, 0,     0, 10, 0, 0, 0, 0, 0, 0, 0, 0, 0,    0, 0, 0, 0, 0, 0, 0, 0, 0, 0, 0,
%    0, 0, 0, 0, 0, 0, 0, 0, 0, 0, 0,     0, 0, 0, 0, 0, 0, 0, 0, 0, 0, 0,    0, 11, 0, 0, 0, 0, 0, 0, 0, 0, 0
% ]);
% m = 1;
% n = 4;
% p = [1, 1, 1];



% P = array1d(2..4, [2, 3, 4]);
% P2 = array1d(1..3, [0, 2, 3]);
% T = 11;
% cp = 10;
% g = array3d(1..3, 2..4, 1..11, [
%    0, 0, 0, 0, 0, 10, 0, 0, 0, 0, 0,     0, 0, 0, 0, 0, 0, 0, 0, 0, 0, 0,    0, 0, 0, 0, 0, 0, 0, 0, 0, 0, 0,
%    0, 0, 0, 0, 0, 0, 0, 0, 0, 0, 0,     0, 10, 0, 0, 0, 0, 0, 0, 0, 0, 0,    0, 0, 0, 0, 0, 0, 0, 0, 0, 0, 0,
%    0, 0, 0, 0, 0, 0, 0, 0, 0, 0, 0,     0, 0, 0, 0, 0, 0, 0, 0, 0, 0, 0,    0, 11, 0, 0, 0, 0, 0, 0, 0, 0, 0
% ]);
% m = 1;
% n = 4;
% p = [2, 1, 1];


% P = array1d(2..4, [2, 3, 4]);
% P2 = array1d(1..3, [0, 2, 3]);
% T = 11;
% cp = 10;
% g = array3d(1..3, 2..4, 1..11, [
%    10, 0, 0, 0, 0, 20, 0, 0, 0, 0, 0,     0, 0, 0, 0, 0, 0, 0, 0, 0, 0, 0,    0, 0, 0, 0, 0, 0, 0, 0, 0, 0, 0,
%    0, 0, 0, 0, 0, 0, 0, 0, 0, 0, 0,     0, 0, 0, 3, 0, 0, 0, 0, 0, 0, 0,    0, 0, 0, 0, 0, 0, 0, 0, 0, 0, 0,
%    0, 0, 0, 0, 0, 0, 0, 0, 0, 0, 0,     0, 0, 0, 0, 0, 0, 0, 0, 0, 0, 0,    0, 2, 0, 0, 0, 0, 0, 0, 0, 0, 0
% ]);
% m = 3;
% n = 4;
% p = [2, 1, 1];



% P = array1d(2..4, [2, 3, 4]);
% P2 = array1d(1..3, [0, 2, 3]);
% T = 11;
% cp = 10;
% g = array3d(1..3, 2..4, 1..11, [
%    10, 0, 0, 0, 0, 20, 0, 0, 0, 0, 0,     0, 0, 0, 0, 0, 0, 0, 0, 0, 0, 0,    0, 0, 0, 0, 0, 0, 0, 0, 0, 0, 0,
%    0, 0, 0, 0, 0, 0, 0, 0, 0, 0, 0,     0, 0, 0, 3, 0, 0, 0, 0, 0, 0, 0,    0, 0, 0, 0, 0, 0, 0, 0, 0, 0, 0,
%    0, 0, 0, 0, 0, 0, 0, 0, 0, 0, 0,     0, 0, 0, 0, 0, 0, 0, 0, 0, 0, 0,    0, 2, 0, 0, 0, 0, 0, 0, 0, 0, 0
% ]);
% m = 2;
% n = 4;
% p = [2, 1, 1];